NAME: ACTUAL_TOURS/amz0142
TYPE: TOUR
COMMENT: RouteID_0f82bc1c-7f19-4e52-a457-f92fc12524de
DIMENSION: 175
TOUR_SECTION
28
130
140
113
6
151
136
153
55
166
164
124
135
10
18
43
170
93
108
121
173
16
39
71
80
139
111
126
31
171
79
72
75
114
143
159
88
60
17
20
91
35
76
162
110
163
74
8
26
129
146
169
36
22
3
128
29
148
138
27
68
52
11
2
46
125
96
118
7
137
69
81
109
167
50
42
150
21
77
92
53
156
61
103
175
24
99
132
73
165
86
45
100
85
155
104
119
54
90
14
62
78
94
142
145
82
15
116
67
127
65
47
38
174
112
144
158
168
44
152
102
101
122
154
57
19
34
115
37
161
9
64
12
120
63
41
30
157
49
133
59
23
105
58
172
123
134
25
84
13
147
33
51
4
141
95
40
117
32
131
89
87
107
48
149
97
70
83
5
56
66
98
1
160
106
-1
EOF
